root_relax = 977.32
QCR_time = 10.7228
opt = true
obj_val = 977.07
solved_time = 0.5512
explored_nodes = 808
              0
CPXPARAM_Preprocessing_NumPass                   0
CPXPARAM_Output_CloneLog                         -1
CPXPARAM_MIP_Cuts_Cliques                        -1
CPXPARAM_Preprocessing_CoeffReduce               0
CPXPARAM_MIP_Cuts_Covers                         -1
CPXPARAM_Preprocessing_BoundStrength             0
CPXPARAM_Preprocessing_Relax                     0
CPXPARAM_MIP_Cuts_FlowCovers                     -1
CPXPARAM_MIP_Cuts_Implied                        -1
CPXPARAM_MIP_Strategy_Probe                      -1
CPXPARAM_MIP_Cuts_GUBCovers                      -1
CPXPARAM_MIP_Cuts_Gomory                         -1
CPXPARAM_MIP_Cuts_PathCut                        -1
CPXPARAM_MIP_Cuts_MIRCut                         -1
CPXPARAM_MIP_Cuts_Disjunctive                    -1
CPXPARAM_Preprocessing_Symmetry                  0
CPXPARAM_Preprocessing_RepeatPresolve            0
CPXPARAM_MIP_Strategy_FPHeur                     -1
CPXPARAM_MIP_Cuts_ZeroHalfCut                    -1
CPXPARAM_MIP_Cuts_LiftProj                       -1
CPXPARAM_Preprocessing_QPMakePSD                 0
CPXPARAM_Preprocessing_QToLin                    0
CPXPARAM_MIP_Strategy_HeuristicFreq              -1
CPXPARAM_MIP_Limits_CutPasses                    -1
CPXPARAM_MIP_Strategy_RINSHeur                   -1
CPXPARAM_TimeLimit                               1800
Tried aggregator 0 times.
Reduced MIQP has 0 rows, 63 columns, and 0 nonzeros.
Reduced MIQP has 63 binaries, 0 generals, 0 SOSs, and 0 indicators.
Reduced MIQP objective Q matrix has 3627 nonzeros.
Presolve time = 0.05 sec. (0.27 ticks)
MIP emphasis: balance optimality and feasibility.
MIP search method: dynamic search.
Parallel mode: deterministic, using up to 2 threads.
Root relaxation solution time = 0.10 sec. (2.38 ticks)

        Nodes                                         Cuts/
   Node  Left     Objective  IInf  Best Integer    Best Bound    ItCnt     Gap

      0     0     -977.3181    63                   -977.3181        7         
      0     2     -977.3181    63                   -977.3181        7         
Elapsed time = 0.40 sec. (3.45 ticks, tree = 0.02 MB, solutions = 0)
*    53    26      integral     0     -977.0000     -977.3180       97    0.03%

Root node processing (before b&c):
  Real time             =    0.22 sec. (2.88 ticks)
Parallel b&c, 2 threads:
  Real time             =    0.32 sec. (32.07 ticks)
  Sync time (average)   =    0.03 sec.
  Wait time (average)   =    0.00 sec.
                          ------------
Total (root+branch&cut) =    0.53 sec. (34.95 ticks)
